; benchmark generated from python API
(set-info :status unknown)
(declare-fun cell_1_4 () Int)
(declare-fun cell_1_7 () Int)
(declare-fun cell_1_8 () Int)
(declare-fun cell_2_1 () Int)
(declare-fun cell_2_4 () Int)
(declare-fun cell_3_2 () Int)
(declare-fun cell_3_4 () Int)
(declare-fun cell_4_6 () Int)
(declare-fun cell_4_8 () Int)
(declare-fun cell_5_2 () Int)
(declare-fun cell_5_3 () Int)
(declare-fun cell_6_6 () Int)
(declare-fun cell_6_9 () Int)
(declare-fun cell_7_5 () Int)
(declare-fun cell_7_7 () Int)
(declare-fun cell_8_3 () Int)
(declare-fun cell_8_9 () Int)
(declare-fun cell_9_1 () Int)
(declare-fun cell_9_5 () Int)
(declare-fun cell_1_1 () Int)
(declare-fun cell_3_1 () Int)
(declare-fun cell_4_1 () Int)
(declare-fun cell_5_1 () Int)
(declare-fun cell_6_1 () Int)
(declare-fun cell_7_1 () Int)
(declare-fun cell_8_1 () Int)
(declare-fun cell_1_2 () Int)
(declare-fun cell_2_2 () Int)
(declare-fun cell_4_2 () Int)
(declare-fun cell_6_2 () Int)
(declare-fun cell_7_2 () Int)
(declare-fun cell_8_2 () Int)
(declare-fun cell_9_2 () Int)
(declare-fun cell_1_3 () Int)
(declare-fun cell_2_3 () Int)
(declare-fun cell_3_3 () Int)
(declare-fun cell_4_3 () Int)
(declare-fun cell_6_3 () Int)
(declare-fun cell_7_3 () Int)
(declare-fun cell_9_3 () Int)
(declare-fun cell_4_4 () Int)
(declare-fun cell_5_4 () Int)
(declare-fun cell_6_4 () Int)
(declare-fun cell_7_4 () Int)
(declare-fun cell_8_4 () Int)
(declare-fun cell_9_4 () Int)
(declare-fun cell_1_5 () Int)
(declare-fun cell_2_5 () Int)
(declare-fun cell_3_5 () Int)
(declare-fun cell_4_5 () Int)
(declare-fun cell_5_5 () Int)
(declare-fun cell_6_5 () Int)
(declare-fun cell_8_5 () Int)
(declare-fun cell_1_6 () Int)
(declare-fun cell_2_6 () Int)
(declare-fun cell_3_6 () Int)
(declare-fun cell_5_6 () Int)
(declare-fun cell_7_6 () Int)
(declare-fun cell_8_6 () Int)
(declare-fun cell_9_6 () Int)
(declare-fun cell_2_7 () Int)
(declare-fun cell_3_7 () Int)
(declare-fun cell_4_7 () Int)
(declare-fun cell_5_7 () Int)
(declare-fun cell_6_7 () Int)
(declare-fun cell_8_7 () Int)
(declare-fun cell_9_7 () Int)
(declare-fun cell_2_8 () Int)
(declare-fun cell_3_8 () Int)
(declare-fun cell_5_8 () Int)
(declare-fun cell_6_8 () Int)
(declare-fun cell_7_8 () Int)
(declare-fun cell_8_8 () Int)
(declare-fun cell_9_8 () Int)
(declare-fun cell_1_9 () Int)
(declare-fun cell_2_9 () Int)
(declare-fun cell_3_9 () Int)
(declare-fun cell_4_9 () Int)
(declare-fun cell_5_9 () Int)
(declare-fun cell_7_9 () Int)
(declare-fun cell_9_9 () Int)
(assert
 (= cell_1_4 3))
(assert
 (= cell_1_7 1))
(assert
 (= cell_1_8 2))
(assert
 (= cell_2_1 2))
(assert
 (= cell_2_4 1))
(assert
 (= cell_3_2 1))
(assert
 (= cell_3_4 2))
(assert
 (= cell_4_6 2))
(assert
 (= cell_4_8 1))
(assert
 (= cell_5_2 2))
(assert
 (= cell_5_3 1))
(assert
 (= cell_6_6 1))
(assert
 (= cell_6_9 2))
(assert
 (= cell_7_5 1))
(assert
 (= cell_7_7 2))
(assert
 (= cell_8_3 2))
(assert
 (= cell_8_9 1))
(assert
 (= cell_9_1 1))
(assert
 (= cell_9_5 2))
(assert
 (let (($x9793 (= cell_1_1 9)))
 (let (($x3049 (= cell_1_1 8)))
 (let (($x340 (= cell_1_1 7)))
 (let (($x7217 (= cell_1_1 6)))
 (let (($x2668 (= cell_1_1 5)))
 (let (($x4320 (= cell_1_1 4)))
 (let (($x9068 (= cell_1_1 3)))
 (let (($x9921 (= cell_1_1 2)))
 (let (($x8555 (= cell_1_1 1)))
 (or $x8555 $x9921 $x9068 $x4320 $x2668 $x7217 $x340 $x3049 $x9793)))))))))))
(assert
 (let (($x3131 (= cell_2_1 2)))
 (or (= cell_2_1 1) $x3131 (= cell_2_1 3) (= cell_2_1 4) (= cell_2_1 5) (= cell_2_1 6) (= cell_2_1 7) (= cell_2_1 8) (= cell_2_1 9))))
(assert
 (let (($x7532 (= cell_3_1 9)))
 (let (($x4740 (= cell_3_1 8)))
 (let (($x4367 (= cell_3_1 7)))
 (let (($x9399 (= cell_3_1 6)))
 (let (($x1898 (= cell_3_1 5)))
 (let (($x4634 (= cell_3_1 4)))
 (let (($x5765 (= cell_3_1 3)))
 (let (($x4068 (= cell_3_1 2)))
 (let (($x9542 (= cell_3_1 1)))
 (or $x9542 $x4068 $x5765 $x4634 $x1898 $x9399 $x4367 $x4740 $x7532)))))))))))
(assert
 (let (($x1411 (= cell_4_1 9)))
 (let (($x9920 (= cell_4_1 8)))
 (let (($x1197 (= cell_4_1 7)))
 (let (($x4369 (= cell_4_1 6)))
 (let (($x5773 (= cell_4_1 5)))
 (let (($x8483 (= cell_4_1 4)))
 (let (($x3658 (= cell_4_1 3)))
 (let (($x171 (= cell_4_1 2)))
 (let (($x5955 (= cell_4_1 1)))
 (or $x5955 $x171 $x3658 $x8483 $x5773 $x4369 $x1197 $x9920 $x1411)))))))))))
(assert
 (let (($x1947 (= cell_5_1 9)))
 (let (($x1443 (= cell_5_1 8)))
 (let (($x9775 (= cell_5_1 7)))
 (let (($x7901 (= cell_5_1 6)))
 (let (($x3835 (= cell_5_1 5)))
 (let (($x9410 (= cell_5_1 4)))
 (let (($x9175 (= cell_5_1 3)))
 (let (($x9576 (= cell_5_1 2)))
 (let (($x4585 (= cell_5_1 1)))
 (or $x4585 $x9576 $x9175 $x9410 $x3835 $x7901 $x9775 $x1443 $x1947)))))))))))
(assert
 (let (($x5575 (= cell_6_1 9)))
 (let (($x1256 (= cell_6_1 8)))
 (let (($x3197 (= cell_6_1 7)))
 (let (($x8953 (= cell_6_1 6)))
 (let (($x290 (= cell_6_1 5)))
 (let (($x9946 (= cell_6_1 4)))
 (let (($x3205 (= cell_6_1 3)))
 (let (($x2906 (= cell_6_1 2)))
 (let (($x5357 (= cell_6_1 1)))
 (or $x5357 $x2906 $x3205 $x9946 $x290 $x8953 $x3197 $x1256 $x5575)))))))))))
(assert
 (let (($x5177 (= cell_7_1 9)))
 (let (($x7680 (= cell_7_1 8)))
 (let (($x9707 (= cell_7_1 7)))
 (let (($x8792 (= cell_7_1 6)))
 (let (($x3058 (= cell_7_1 5)))
 (let (($x7041 (= cell_7_1 4)))
 (let (($x3546 (= cell_7_1 3)))
 (let (($x9958 (= cell_7_1 2)))
 (let (($x6404 (= cell_7_1 1)))
 (or $x6404 $x9958 $x3546 $x7041 $x3058 $x8792 $x9707 $x7680 $x5177)))))))))))
(assert
 (let (($x2650 (= cell_8_1 9)))
 (let (($x4648 (= cell_8_1 8)))
 (let (($x5400 (= cell_8_1 7)))
 (let (($x1775 (= cell_8_1 6)))
 (let (($x7491 (= cell_8_1 5)))
 (let (($x2930 (= cell_8_1 4)))
 (let (($x2677 (= cell_8_1 3)))
 (let (($x7698 (= cell_8_1 2)))
 (let (($x3032 (= cell_8_1 1)))
 (or $x3032 $x7698 $x2677 $x2930 $x7491 $x1775 $x5400 $x4648 $x2650)))))))))))
(assert
 (let (($x1519 (= cell_9_1 1)))
 (or $x1519 (= cell_9_1 2) (= cell_9_1 3) (= cell_9_1 4) (= cell_9_1 5) (= cell_9_1 6) (= cell_9_1 7) (= cell_9_1 8) (= cell_9_1 9))))
(assert
 (let (($x1263 (= cell_1_2 9)))
 (let (($x3280 (= cell_1_2 8)))
 (let (($x8845 (= cell_1_2 7)))
 (let (($x3120 (= cell_1_2 6)))
 (let (($x6559 (= cell_1_2 5)))
 (let (($x133 (= cell_1_2 4)))
 (let (($x9120 (= cell_1_2 3)))
 (let (($x73 (= cell_1_2 2)))
 (let (($x9423 (= cell_1_2 1)))
 (or $x9423 $x73 $x9120 $x133 $x6559 $x3120 $x8845 $x3280 $x1263)))))))))))
(assert
 (let (($x4743 (= cell_2_2 9)))
 (let (($x3087 (= cell_2_2 8)))
 (let (($x6354 (= cell_2_2 7)))
 (let (($x9198 (= cell_2_2 6)))
 (let (($x4015 (= cell_2_2 5)))
 (let (($x9603 (= cell_2_2 4)))
 (let (($x3111 (= cell_2_2 3)))
 (let (($x9671 (= cell_2_2 2)))
 (let (($x7852 (= cell_2_2 1)))
 (or $x7852 $x9671 $x3111 $x9603 $x4015 $x9198 $x6354 $x3087 $x4743)))))))))))
(assert
 (let (($x9715 (= cell_3_2 1)))
 (or $x9715 (= cell_3_2 2) (= cell_3_2 3) (= cell_3_2 4) (= cell_3_2 5) (= cell_3_2 6) (= cell_3_2 7) (= cell_3_2 8) (= cell_3_2 9))))
(assert
 (let (($x8317 (= cell_4_2 9)))
 (let (($x944 (= cell_4_2 8)))
 (let (($x6956 (= cell_4_2 7)))
 (let (($x3846 (= cell_4_2 6)))
 (let (($x7139 (= cell_4_2 5)))
 (let (($x9375 (= cell_4_2 4)))
 (let (($x5047 (= cell_4_2 3)))
 (let (($x10085 (= cell_4_2 2)))
 (let (($x768 (= cell_4_2 1)))
 (or $x768 $x10085 $x5047 $x9375 $x7139 $x3846 $x6956 $x944 $x8317)))))))))))
(assert
 (let (($x7075 (= cell_5_2 2)))
 (or (= cell_5_2 1) $x7075 (= cell_5_2 3) (= cell_5_2 4) (= cell_5_2 5) (= cell_5_2 6) (= cell_5_2 7) (= cell_5_2 8) (= cell_5_2 9))))
(assert
 (let (($x4891 (= cell_6_2 9)))
 (let (($x7445 (= cell_6_2 8)))
 (let (($x2549 (= cell_6_2 7)))
 (let (($x1689 (= cell_6_2 6)))
 (let (($x2516 (= cell_6_2 5)))
 (let (($x2643 (= cell_6_2 4)))
 (let (($x8220 (= cell_6_2 3)))
 (let (($x1904 (= cell_6_2 2)))
 (let (($x5060 (= cell_6_2 1)))
 (or $x5060 $x1904 $x8220 $x2643 $x2516 $x1689 $x2549 $x7445 $x4891)))))))))))
(assert
 (let (($x6099 (= cell_7_2 9)))
 (let (($x10080 (= cell_7_2 8)))
 (let (($x10056 (= cell_7_2 7)))
 (let (($x3129 (= cell_7_2 6)))
 (let (($x10203 (= cell_7_2 5)))
 (let (($x4632 (= cell_7_2 4)))
 (let (($x4399 (= cell_7_2 3)))
 (let (($x6487 (= cell_7_2 2)))
 (let (($x4126 (= cell_7_2 1)))
 (or $x4126 $x6487 $x4399 $x4632 $x10203 $x3129 $x10056 $x10080 $x6099)))))))))))
(assert
 (let (($x1659 (= cell_8_2 9)))
 (let (($x5317 (= cell_8_2 8)))
 (let (($x2792 (= cell_8_2 7)))
 (let (($x2487 (= cell_8_2 6)))
 (let (($x6 (= cell_8_2 5)))
 (let (($x4952 (= cell_8_2 4)))
 (let (($x9561 (= cell_8_2 3)))
 (let (($x1745 (= cell_8_2 2)))
 (let (($x1460 (= cell_8_2 1)))
 (or $x1460 $x1745 $x9561 $x4952 $x6 $x2487 $x2792 $x5317 $x1659)))))))))))
(assert
 (let (($x5732 (= cell_9_2 9)))
 (let (($x8624 (= cell_9_2 8)))
 (let (($x1107 (= cell_9_2 7)))
 (let (($x9077 (= cell_9_2 6)))
 (let (($x4277 (= cell_9_2 5)))
 (let (($x8102 (= cell_9_2 4)))
 (let (($x1170 (= cell_9_2 3)))
 (let (($x8586 (= cell_9_2 2)))
 (let (($x8172 (= cell_9_2 1)))
 (or $x8172 $x8586 $x1170 $x8102 $x4277 $x9077 $x1107 $x8624 $x5732)))))))))))
(assert
 (let (($x5496 (= cell_1_3 9)))
 (let (($x925 (= cell_1_3 8)))
 (let (($x5225 (= cell_1_3 7)))
 (let (($x3478 (= cell_1_3 6)))
 (let (($x8417 (= cell_1_3 5)))
 (let (($x8431 (= cell_1_3 4)))
 (let (($x4159 (= cell_1_3 3)))
 (let (($x7610 (= cell_1_3 2)))
 (let (($x9819 (= cell_1_3 1)))
 (or $x9819 $x7610 $x4159 $x8431 $x8417 $x3478 $x5225 $x925 $x5496)))))))))))
(assert
 (let (($x1089 (= cell_2_3 9)))
 (let (($x385 (= cell_2_3 8)))
 (let (($x1390 (= cell_2_3 7)))
 (let (($x3452 (= cell_2_3 6)))
 (let (($x6223 (= cell_2_3 5)))
 (let (($x3784 (= cell_2_3 4)))
 (let (($x9589 (= cell_2_3 3)))
 (let (($x33 (= cell_2_3 2)))
 (let (($x1830 (= cell_2_3 1)))
 (or $x1830 $x33 $x9589 $x3784 $x6223 $x3452 $x1390 $x385 $x1089)))))))))))
(assert
 (let (($x4618 (= cell_3_3 9)))
 (let (($x7488 (= cell_3_3 8)))
 (let (($x3911 (= cell_3_3 7)))
 (let (($x5684 (= cell_3_3 6)))
 (let (($x5580 (= cell_3_3 5)))
 (let (($x6750 (= cell_3_3 4)))
 (let (($x5631 (= cell_3_3 3)))
 (let (($x4918 (= cell_3_3 2)))
 (let (($x9397 (= cell_3_3 1)))
 (or $x9397 $x4918 $x5631 $x6750 $x5580 $x5684 $x3911 $x7488 $x4618)))))))))))
(assert
 (let (($x4004 (= cell_4_3 9)))
 (let (($x761 (= cell_4_3 8)))
 (let (($x9844 (= cell_4_3 7)))
 (let (($x1299 (= cell_4_3 6)))
 (let (($x8336 (= cell_4_3 5)))
 (let (($x8177 (= cell_4_3 4)))
 (let (($x10014 (= cell_4_3 3)))
 (let (($x3113 (= cell_4_3 2)))
 (let (($x2282 (= cell_4_3 1)))
 (or $x2282 $x3113 $x10014 $x8177 $x8336 $x1299 $x9844 $x761 $x4004)))))))))))
(assert
 (let (($x4769 (= cell_5_3 1)))
 (or $x4769 (= cell_5_3 2) (= cell_5_3 3) (= cell_5_3 4) (= cell_5_3 5) (= cell_5_3 6) (= cell_5_3 7) (= cell_5_3 8) (= cell_5_3 9))))
(assert
 (let (($x5038 (= cell_6_3 9)))
 (let (($x8719 (= cell_6_3 8)))
 (let (($x8672 (= cell_6_3 7)))
 (let (($x1276 (= cell_6_3 6)))
 (let (($x2436 (= cell_6_3 5)))
 (let (($x2756 (= cell_6_3 4)))
 (let (($x4923 (= cell_6_3 3)))
 (let (($x9071 (= cell_6_3 2)))
 (let (($x2003 (= cell_6_3 1)))
 (or $x2003 $x9071 $x4923 $x2756 $x2436 $x1276 $x8672 $x8719 $x5038)))))))))))
(assert
 (let (($x7858 (= cell_7_3 9)))
 (let (($x9928 (= cell_7_3 8)))
 (let (($x2718 (= cell_7_3 7)))
 (let (($x6669 (= cell_7_3 6)))
 (let (($x5998 (= cell_7_3 5)))
 (let (($x2942 (= cell_7_3 4)))
 (let (($x1848 (= cell_7_3 3)))
 (let (($x1422 (= cell_7_3 2)))
 (let (($x9717 (= cell_7_3 1)))
 (or $x9717 $x1422 $x1848 $x2942 $x5998 $x6669 $x2718 $x9928 $x7858)))))))))))
(assert
 (let (($x2170 (= cell_8_3 2)))
 (or (= cell_8_3 1) $x2170 (= cell_8_3 3) (= cell_8_3 4) (= cell_8_3 5) (= cell_8_3 6) (= cell_8_3 7) (= cell_8_3 8) (= cell_8_3 9))))
(assert
 (let (($x2380 (= cell_9_3 9)))
 (let (($x6622 (= cell_9_3 8)))
 (let (($x1348 (= cell_9_3 7)))
 (let (($x1346 (= cell_9_3 6)))
 (let (($x1096 (= cell_9_3 5)))
 (let (($x7463 (= cell_9_3 4)))
 (let (($x451 (= cell_9_3 3)))
 (let (($x3585 (= cell_9_3 2)))
 (let (($x2654 (= cell_9_3 1)))
 (or $x2654 $x3585 $x451 $x7463 $x1096 $x1346 $x1348 $x6622 $x2380)))))))))))
(assert
 (let (($x6804 (= cell_1_4 3)))
 (or (= cell_1_4 1) (= cell_1_4 2) $x6804 (= cell_1_4 4) (= cell_1_4 5) (= cell_1_4 6) (= cell_1_4 7) (= cell_1_4 8) (= cell_1_4 9))))
(assert
 (let (($x3050 (= cell_2_4 1)))
 (or $x3050 (= cell_2_4 2) (= cell_2_4 3) (= cell_2_4 4) (= cell_2_4 5) (= cell_2_4 6) (= cell_2_4 7) (= cell_2_4 8) (= cell_2_4 9))))
(assert
 (let (($x8286 (= cell_3_4 2)))
 (or (= cell_3_4 1) $x8286 (= cell_3_4 3) (= cell_3_4 4) (= cell_3_4 5) (= cell_3_4 6) (= cell_3_4 7) (= cell_3_4 8) (= cell_3_4 9))))
(assert
 (let (($x1084 (= cell_4_4 9)))
 (let (($x3189 (= cell_4_4 8)))
 (let (($x8577 (= cell_4_4 7)))
 (let (($x8916 (= cell_4_4 6)))
 (let (($x7263 (= cell_4_4 5)))
 (let (($x5672 (= cell_4_4 4)))
 (let (($x5212 (= cell_4_4 3)))
 (let (($x8607 (= cell_4_4 2)))
 (let (($x1908 (= cell_4_4 1)))
 (or $x1908 $x8607 $x5212 $x5672 $x7263 $x8916 $x8577 $x3189 $x1084)))))))))))
(assert
 (let (($x5643 (= cell_5_4 9)))
 (let (($x1616 (= cell_5_4 8)))
 (let (($x7690 (= cell_5_4 7)))
 (let (($x7862 (= cell_5_4 6)))
 (let (($x6906 (= cell_5_4 5)))
 (let (($x3393 (= cell_5_4 4)))
 (let (($x6749 (= cell_5_4 3)))
 (let (($x4861 (= cell_5_4 2)))
 (let (($x8406 (= cell_5_4 1)))
 (or $x8406 $x4861 $x6749 $x3393 $x6906 $x7862 $x7690 $x1616 $x5643)))))))))))
(assert
 (let (($x9778 (= cell_6_4 9)))
 (let (($x104 (= cell_6_4 8)))
 (let (($x5021 (= cell_6_4 7)))
 (let (($x10021 (= cell_6_4 6)))
 (let (($x2734 (= cell_6_4 5)))
 (let (($x8810 (= cell_6_4 4)))
 (let (($x1452 (= cell_6_4 3)))
 (let (($x8096 (= cell_6_4 2)))
 (let (($x3021 (= cell_6_4 1)))
 (or $x3021 $x8096 $x1452 $x8810 $x2734 $x10021 $x5021 $x104 $x9778)))))))))))
(assert
 (let (($x6990 (= cell_7_4 9)))
 (let (($x4863 (= cell_7_4 8)))
 (let (($x4363 (= cell_7_4 7)))
 (let (($x6987 (= cell_7_4 6)))
 (let (($x1880 (= cell_7_4 5)))
 (let (($x10160 (= cell_7_4 4)))
 (let (($x3257 (= cell_7_4 3)))
 (let (($x6768 (= cell_7_4 2)))
 (let (($x9756 (= cell_7_4 1)))
 (or $x9756 $x6768 $x3257 $x10160 $x1880 $x6987 $x4363 $x4863 $x6990)))))))))))
(assert
 (let (($x4346 (= cell_8_4 9)))
 (let (($x4524 (= cell_8_4 8)))
 (let (($x9299 (= cell_8_4 7)))
 (let (($x7125 (= cell_8_4 6)))
 (let (($x3073 (= cell_8_4 5)))
 (let (($x3653 (= cell_8_4 4)))
 (let (($x3244 (= cell_8_4 3)))
 (let (($x8143 (= cell_8_4 2)))
 (let (($x9029 (= cell_8_4 1)))
 (or $x9029 $x8143 $x3244 $x3653 $x3073 $x7125 $x9299 $x4524 $x4346)))))))))))
(assert
 (let (($x2900 (= cell_9_4 9)))
 (let (($x9761 (= cell_9_4 8)))
 (let (($x8169 (= cell_9_4 7)))
 (let (($x2377 (= cell_9_4 6)))
 (let (($x3567 (= cell_9_4 5)))
 (let (($x1643 (= cell_9_4 4)))
 (let (($x2157 (= cell_9_4 3)))
 (let (($x3409 (= cell_9_4 2)))
 (let (($x9835 (= cell_9_4 1)))
 (or $x9835 $x3409 $x2157 $x1643 $x3567 $x2377 $x8169 $x9761 $x2900)))))))))))
(assert
 (let (($x6310 (= cell_1_5 9)))
 (let (($x2022 (= cell_1_5 8)))
 (let (($x7628 (= cell_1_5 7)))
 (let (($x2072 (= cell_1_5 6)))
 (let (($x8749 (= cell_1_5 5)))
 (let (($x8948 (= cell_1_5 4)))
 (let (($x4898 (= cell_1_5 3)))
 (let (($x6026 (= cell_1_5 2)))
 (let (($x8739 (= cell_1_5 1)))
 (or $x8739 $x6026 $x4898 $x8948 $x8749 $x2072 $x7628 $x2022 $x6310)))))))))))
(assert
 (let (($x5803 (= cell_2_5 9)))
 (let (($x4965 (= cell_2_5 8)))
 (let (($x9114 (= cell_2_5 7)))
 (let (($x6567 (= cell_2_5 6)))
 (let (($x4217 (= cell_2_5 5)))
 (let (($x4077 (= cell_2_5 4)))
 (let (($x7474 (= cell_2_5 3)))
 (let (($x739 (= cell_2_5 2)))
 (let (($x5862 (= cell_2_5 1)))
 (or $x5862 $x739 $x7474 $x4077 $x4217 $x6567 $x9114 $x4965 $x5803)))))))))))
(assert
 (let (($x3668 (= cell_3_5 9)))
 (let (($x2999 (= cell_3_5 8)))
 (let (($x8407 (= cell_3_5 7)))
 (let (($x6625 (= cell_3_5 6)))
 (let (($x5891 (= cell_3_5 5)))
 (let (($x8825 (= cell_3_5 4)))
 (let (($x4266 (= cell_3_5 3)))
 (let (($x1168 (= cell_3_5 2)))
 (let (($x3928 (= cell_3_5 1)))
 (or $x3928 $x1168 $x4266 $x8825 $x5891 $x6625 $x8407 $x2999 $x3668)))))))))))
(assert
 (let (($x1784 (= cell_4_5 9)))
 (let (($x3235 (= cell_4_5 8)))
 (let (($x8730 (= cell_4_5 7)))
 (let (($x8843 (= cell_4_5 6)))
 (let (($x9125 (= cell_4_5 5)))
 (let (($x5020 (= cell_4_5 4)))
 (let (($x8989 (= cell_4_5 3)))
 (let (($x3067 (= cell_4_5 2)))
 (let (($x2762 (= cell_4_5 1)))
 (or $x2762 $x3067 $x8989 $x5020 $x9125 $x8843 $x8730 $x3235 $x1784)))))))))))
(assert
 (let (($x2525 (= cell_5_5 9)))
 (let (($x8771 (= cell_5_5 8)))
 (let (($x178 (= cell_5_5 7)))
 (let (($x3341 (= cell_5_5 6)))
 (let (($x7405 (= cell_5_5 5)))
 (let (($x6894 (= cell_5_5 4)))
 (let (($x163 (= cell_5_5 3)))
 (let (($x9227 (= cell_5_5 2)))
 (let (($x4461 (= cell_5_5 1)))
 (or $x4461 $x9227 $x163 $x6894 $x7405 $x3341 $x178 $x8771 $x2525)))))))))))
(assert
 (let (($x8568 (= cell_6_5 9)))
 (let (($x131 (= cell_6_5 8)))
 (let (($x5750 (= cell_6_5 7)))
 (let (($x10077 (= cell_6_5 6)))
 (let (($x3429 (= cell_6_5 5)))
 (let (($x6645 (= cell_6_5 4)))
 (let (($x3901 (= cell_6_5 3)))
 (let (($x2612 (= cell_6_5 2)))
 (let (($x2132 (= cell_6_5 1)))
 (or $x2132 $x2612 $x3901 $x6645 $x3429 $x10077 $x5750 $x131 $x8568)))))))))))
(assert
 (let (($x7027 (= cell_7_5 1)))
 (or $x7027 (= cell_7_5 2) (= cell_7_5 3) (= cell_7_5 4) (= cell_7_5 5) (= cell_7_5 6) (= cell_7_5 7) (= cell_7_5 8) (= cell_7_5 9))))
(assert
 (let (($x5493 (= cell_8_5 9)))
 (let (($x3971 (= cell_8_5 8)))
 (let (($x7211 (= cell_8_5 7)))
 (let (($x851 (= cell_8_5 6)))
 (let (($x6581 (= cell_8_5 5)))
 (let (($x1696 (= cell_8_5 4)))
 (let (($x3249 (= cell_8_5 3)))
 (let (($x3941 (= cell_8_5 2)))
 (let (($x6747 (= cell_8_5 1)))
 (or $x6747 $x3941 $x3249 $x1696 $x6581 $x851 $x7211 $x3971 $x5493)))))))))))
(assert
 (let (($x4698 (= cell_9_5 2)))
 (or (= cell_9_5 1) $x4698 (= cell_9_5 3) (= cell_9_5 4) (= cell_9_5 5) (= cell_9_5 6) (= cell_9_5 7) (= cell_9_5 8) (= cell_9_5 9))))
(assert
 (let (($x2691 (= cell_1_6 9)))
 (let (($x7812 (= cell_1_6 8)))
 (let (($x1579 (= cell_1_6 7)))
 (let (($x7336 (= cell_1_6 6)))
 (let (($x8928 (= cell_1_6 5)))
 (let (($x135 (= cell_1_6 4)))
 (let (($x6724 (= cell_1_6 3)))
 (let (($x5620 (= cell_1_6 2)))
 (let (($x607 (= cell_1_6 1)))
 (or $x607 $x5620 $x6724 $x135 $x8928 $x7336 $x1579 $x7812 $x2691)))))))))))
(assert
 (let (($x3728 (= cell_2_6 9)))
 (let (($x4166 (= cell_2_6 8)))
 (let (($x8111 (= cell_2_6 7)))
 (let (($x3790 (= cell_2_6 6)))
 (let (($x1178 (= cell_2_6 5)))
 (let (($x4982 (= cell_2_6 4)))
 (let (($x2362 (= cell_2_6 3)))
 (let (($x4531 (= cell_2_6 2)))
 (let (($x7448 (= cell_2_6 1)))
 (or $x7448 $x4531 $x2362 $x4982 $x1178 $x3790 $x8111 $x4166 $x3728)))))))))))
(assert
 (let (($x6266 (= cell_3_6 9)))
 (let (($x7635 (= cell_3_6 8)))
 (let (($x702 (= cell_3_6 7)))
 (let (($x4183 (= cell_3_6 6)))
 (let (($x1676 (= cell_3_6 5)))
 (let (($x8080 (= cell_3_6 4)))
 (let (($x3591 (= cell_3_6 3)))
 (let (($x9268 (= cell_3_6 2)))
 (let (($x447 (= cell_3_6 1)))
 (or $x447 $x9268 $x3591 $x8080 $x1676 $x4183 $x702 $x7635 $x6266)))))))))))
(assert
 (let (($x3490 (= cell_4_6 2)))
 (or (= cell_4_6 1) $x3490 (= cell_4_6 3) (= cell_4_6 4) (= cell_4_6 5) (= cell_4_6 6) (= cell_4_6 7) (= cell_4_6 8) (= cell_4_6 9))))
(assert
 (let (($x2910 (= cell_5_6 9)))
 (let (($x4380 (= cell_5_6 8)))
 (let (($x16 (= cell_5_6 7)))
 (let (($x7245 (= cell_5_6 6)))
 (let (($x661 (= cell_5_6 5)))
 (let (($x5585 (= cell_5_6 4)))
 (let (($x373 (= cell_5_6 3)))
 (let (($x8794 (= cell_5_6 2)))
 (let (($x2521 (= cell_5_6 1)))
 (or $x2521 $x8794 $x373 $x5585 $x661 $x7245 $x16 $x4380 $x2910)))))))))))
(assert
 (let (($x1233 (= cell_6_6 1)))
 (or $x1233 (= cell_6_6 2) (= cell_6_6 3) (= cell_6_6 4) (= cell_6_6 5) (= cell_6_6 6) (= cell_6_6 7) (= cell_6_6 8) (= cell_6_6 9))))
(assert
 (let (($x6402 (= cell_7_6 9)))
 (let (($x4387 (= cell_7_6 8)))
 (let (($x7886 (= cell_7_6 7)))
 (let (($x4842 (= cell_7_6 6)))
 (let (($x5854 (= cell_7_6 5)))
 (let (($x5298 (= cell_7_6 4)))
 (let (($x836 (= cell_7_6 3)))
 (let (($x240 (= cell_7_6 2)))
 (let (($x5150 (= cell_7_6 1)))
 (or $x5150 $x240 $x836 $x5298 $x5854 $x4842 $x7886 $x4387 $x6402)))))))))))
(assert
 (let (($x5453 (= cell_8_6 9)))
 (let (($x8335 (= cell_8_6 8)))
 (let (($x1218 (= cell_8_6 7)))
 (let (($x8380 (= cell_8_6 6)))
 (let (($x9773 (= cell_8_6 5)))
 (let (($x9939 (= cell_8_6 4)))
 (let (($x5743 (= cell_8_6 3)))
 (let (($x3354 (= cell_8_6 2)))
 (let (($x7753 (= cell_8_6 1)))
 (or $x7753 $x3354 $x5743 $x9939 $x9773 $x8380 $x1218 $x8335 $x5453)))))))))))
(assert
 (let (($x2411 (= cell_9_6 2)))
 (let (($x81 (= cell_9_6 1)))
 (or $x81 $x2411 (= cell_9_6 3) (= cell_9_6 4) (= cell_9_6 5) (= cell_9_6 6) (= cell_9_6 7) (= cell_9_6 8) (= cell_9_6 9)))))
(assert
 (let (($x8216 (= cell_1_7 1)))
 (or $x8216 (= cell_1_7 2) (= cell_1_7 3) (= cell_1_7 4) (= cell_1_7 5) (= cell_1_7 6) (= cell_1_7 7) (= cell_1_7 8) (= cell_1_7 9))))
(assert
 (let (($x2319 (= cell_2_7 9)))
 (let (($x6758 (= cell_2_7 8)))
 (let (($x1825 (= cell_2_7 7)))
 (let (($x5171 (= cell_2_7 6)))
 (let (($x4501 (= cell_2_7 5)))
 (let (($x2466 (= cell_2_7 4)))
 (let (($x735 (= cell_2_7 3)))
 (let (($x3155 (= cell_2_7 2)))
 (let (($x9062 (= cell_2_7 1)))
 (or $x9062 $x3155 $x735 $x2466 $x4501 $x5171 $x1825 $x6758 $x2319)))))))))))
(assert
 (let (($x7541 (= cell_3_7 9)))
 (let (($x857 (= cell_3_7 8)))
 (let (($x4563 (= cell_3_7 7)))
 (let (($x5780 (= cell_3_7 6)))
 (let (($x2068 (= cell_3_7 5)))
 (let (($x5098 (= cell_3_7 4)))
 (let (($x4473 (= cell_3_7 3)))
 (let (($x5977 (= cell_3_7 2)))
 (let (($x1125 (= cell_3_7 1)))
 (or $x1125 $x5977 $x4473 $x5098 $x2068 $x5780 $x4563 $x857 $x7541)))))))))))
(assert
 (let (($x3311 (= cell_4_7 9)))
 (let (($x575 (= cell_4_7 8)))
 (let (($x3557 (= cell_4_7 7)))
 (let (($x5931 (= cell_4_7 6)))
 (let (($x475 (= cell_4_7 5)))
 (let (($x5159 (= cell_4_7 4)))
 (let (($x3723 (= cell_4_7 3)))
 (let (($x8055 (= cell_4_7 2)))
 (let (($x9455 (= cell_4_7 1)))
 (or $x9455 $x8055 $x3723 $x5159 $x475 $x5931 $x3557 $x575 $x3311)))))))))))
(assert
 (let (($x7650 (= cell_5_7 9)))
 (let (($x7846 (= cell_5_7 8)))
 (let (($x8127 (= cell_5_7 7)))
 (let (($x2405 (= cell_5_7 6)))
 (let (($x7918 (= cell_5_7 5)))
 (let (($x8106 (= cell_5_7 4)))
 (let (($x9710 (= cell_5_7 3)))
 (let (($x9971 (= cell_5_7 2)))
 (let (($x2119 (= cell_5_7 1)))
 (or $x2119 $x9971 $x9710 $x8106 $x7918 $x2405 $x8127 $x7846 $x7650)))))))))))
(assert
 (let (($x427 (= cell_6_7 9)))
 (let (($x5965 (= cell_6_7 8)))
 (let (($x5167 (= cell_6_7 7)))
 (let (($x310 (= cell_6_7 6)))
 (let (($x3180 (= cell_6_7 5)))
 (let (($x7480 (= cell_6_7 4)))
 (let (($x6059 (= cell_6_7 3)))
 (let (($x1065 (= cell_6_7 2)))
 (let (($x10206 (= cell_6_7 1)))
 (or $x10206 $x1065 $x6059 $x7480 $x3180 $x310 $x5167 $x5965 $x427)))))))))))
(assert
 (let (($x5548 (= cell_7_7 2)))
 (or (= cell_7_7 1) $x5548 (= cell_7_7 3) (= cell_7_7 4) (= cell_7_7 5) (= cell_7_7 6) (= cell_7_7 7) (= cell_7_7 8) (= cell_7_7 9))))
(assert
 (let (($x6882 (= cell_8_7 9)))
 (let (($x3716 (= cell_8_7 8)))
 (let (($x6480 (= cell_8_7 7)))
 (let (($x350 (= cell_8_7 6)))
 (let (($x335 (= cell_8_7 5)))
 (let (($x8689 (= cell_8_7 4)))
 (let (($x4429 (= cell_8_7 3)))
 (let (($x413 (= cell_8_7 2)))
 (let (($x1681 (= cell_8_7 1)))
 (or $x1681 $x413 $x4429 $x8689 $x335 $x350 $x6480 $x3716 $x6882)))))))))))
(assert
 (let (($x8567 (= cell_9_7 2)))
 (let (($x435 (= cell_9_7 1)))
 (or $x435 $x8567 (= cell_9_7 3) (= cell_9_7 4) (= cell_9_7 5) (= cell_9_7 6) (= cell_9_7 7) (= cell_9_7 8) (= cell_9_7 9)))))
(assert
 (let (($x1335 (= cell_1_8 2)))
 (or (= cell_1_8 1) $x1335 (= cell_1_8 3) (= cell_1_8 4) (= cell_1_8 5) (= cell_1_8 6) (= cell_1_8 7) (= cell_1_8 8) (= cell_1_8 9))))
(assert
 (let (($x4163 (= cell_2_8 9)))
 (let (($x3588 (= cell_2_8 8)))
 (let (($x1420 (= cell_2_8 7)))
 (let (($x6739 (= cell_2_8 6)))
 (let (($x2026 (= cell_2_8 5)))
 (let (($x4220 (= cell_2_8 4)))
 (let (($x8707 (= cell_2_8 3)))
 (let (($x4642 (= cell_2_8 2)))
 (let (($x2581 (= cell_2_8 1)))
 (or $x2581 $x4642 $x8707 $x4220 $x2026 $x6739 $x1420 $x3588 $x4163)))))))))))
(assert
 (let (($x6247 (= cell_3_8 9)))
 (let (($x3820 (= cell_3_8 8)))
 (let (($x6436 (= cell_3_8 7)))
 (let (($x1911 (= cell_3_8 6)))
 (let (($x4958 (= cell_3_8 5)))
 (let (($x9824 (= cell_3_8 4)))
 (let (($x4216 (= cell_3_8 3)))
 (let (($x7377 (= cell_3_8 2)))
 (let (($x9199 (= cell_3_8 1)))
 (or $x9199 $x7377 $x4216 $x9824 $x4958 $x1911 $x6436 $x3820 $x6247)))))))))))
(assert
 (let (($x6965 (= cell_4_8 1)))
 (or $x6965 (= cell_4_8 2) (= cell_4_8 3) (= cell_4_8 4) (= cell_4_8 5) (= cell_4_8 6) (= cell_4_8 7) (= cell_4_8 8) (= cell_4_8 9))))
(assert
 (let (($x2786 (= cell_5_8 9)))
 (let (($x9032 (= cell_5_8 8)))
 (let (($x6513 (= cell_5_8 7)))
 (let (($x8228 (= cell_5_8 6)))
 (let (($x8858 (= cell_5_8 5)))
 (let (($x5632 (= cell_5_8 4)))
 (let (($x10052 (= cell_5_8 3)))
 (let (($x544 (= cell_5_8 2)))
 (let (($x3331 (= cell_5_8 1)))
 (or $x3331 $x544 $x10052 $x5632 $x8858 $x8228 $x6513 $x9032 $x2786)))))))))))
(assert
 (let (($x4702 (= cell_6_8 9)))
 (let (($x4335 (= cell_6_8 8)))
 (let (($x1497 (= cell_6_8 7)))
 (let (($x4527 (= cell_6_8 6)))
 (let (($x1120 (= cell_6_8 5)))
 (let (($x7446 (= cell_6_8 4)))
 (let (($x2509 (= cell_6_8 3)))
 (let (($x2980 (= cell_6_8 2)))
 (let (($x903 (= cell_6_8 1)))
 (or $x903 $x2980 $x2509 $x7446 $x1120 $x4527 $x1497 $x4335 $x4702)))))))))))
(assert
 (let (($x2280 (= cell_7_8 9)))
 (let (($x1973 (= cell_7_8 8)))
 (let (($x8467 (= cell_7_8 7)))
 (let (($x2244 (= cell_7_8 6)))
 (let (($x4314 (= cell_7_8 5)))
 (let (($x984 (= cell_7_8 4)))
 (let (($x7438 (= cell_7_8 3)))
 (let (($x3149 (= cell_7_8 2)))
 (let (($x6240 (= cell_7_8 1)))
 (or $x6240 $x3149 $x7438 $x984 $x4314 $x2244 $x8467 $x1973 $x2280)))))))))))
(assert
 (let (($x21 (= cell_8_8 9)))
 (let (($x2348 (= cell_8_8 8)))
 (let (($x5906 (= cell_8_8 7)))
 (let (($x7020 (= cell_8_8 6)))
 (let (($x9654 (= cell_8_8 5)))
 (let (($x8898 (= cell_8_8 4)))
 (let (($x3390 (= cell_8_8 3)))
 (let (($x1690 (= cell_8_8 2)))
 (let (($x1495 (= cell_8_8 1)))
 (or $x1495 $x1690 $x3390 $x8898 $x9654 $x7020 $x5906 $x2348 $x21)))))))))))
(assert
 (let (($x1198 (= cell_9_8 2)))
 (let (($x9437 (= cell_9_8 1)))
 (or $x9437 $x1198 (= cell_9_8 3) (= cell_9_8 4) (= cell_9_8 5) (= cell_9_8 6) (= cell_9_8 7) (= cell_9_8 8) (= cell_9_8 9)))))
(assert
 (let (($x6125 (= cell_1_9 9)))
 (let (($x9027 (= cell_1_9 8)))
 (let (($x7249 (= cell_1_9 7)))
 (let (($x3231 (= cell_1_9 6)))
 (let (($x5326 (= cell_1_9 5)))
 (let (($x8052 (= cell_1_9 4)))
 (let (($x1967 (= cell_1_9 3)))
 (let (($x4894 (= cell_1_9 2)))
 (let (($x4955 (= cell_1_9 1)))
 (or $x4955 $x4894 $x1967 $x8052 $x5326 $x3231 $x7249 $x9027 $x6125)))))))))))
(assert
 (let (($x1295 (= cell_2_9 9)))
 (let (($x246 (= cell_2_9 8)))
 (let (($x3576 (= cell_2_9 7)))
 (let (($x8090 (= cell_2_9 6)))
 (let (($x8884 (= cell_2_9 5)))
 (let (($x4528 (= cell_2_9 4)))
 (let (($x6181 (= cell_2_9 3)))
 (let (($x5919 (= cell_2_9 2)))
 (let (($x4377 (= cell_2_9 1)))
 (or $x4377 $x5919 $x6181 $x4528 $x8884 $x8090 $x3576 $x246 $x1295)))))))))))
(assert
 (let (($x7358 (= cell_3_9 9)))
 (let (($x6369 (= cell_3_9 8)))
 (let (($x3118 (= cell_3_9 7)))
 (let (($x2783 (= cell_3_9 6)))
 (let (($x3673 (= cell_3_9 5)))
 (let (($x9231 (= cell_3_9 4)))
 (let (($x4027 (= cell_3_9 3)))
 (let (($x3551 (= cell_3_9 2)))
 (let (($x6853 (= cell_3_9 1)))
 (or $x6853 $x3551 $x4027 $x9231 $x3673 $x2783 $x3118 $x6369 $x7358)))))))))))
(assert
 (let (($x1293 (= cell_4_9 9)))
 (let (($x7077 (= cell_4_9 8)))
 (let (($x9187 (= cell_4_9 7)))
 (let (($x7514 (= cell_4_9 6)))
 (let (($x80 (= cell_4_9 5)))
 (let (($x4750 (= cell_4_9 4)))
 (let (($x187 (= cell_4_9 3)))
 (let (($x1326 (= cell_4_9 2)))
 (let (($x1673 (= cell_4_9 1)))
 (or $x1673 $x1326 $x187 $x4750 $x80 $x7514 $x9187 $x7077 $x1293)))))))))))
(assert
 (let (($x3306 (= cell_5_9 9)))
 (let (($x2582 (= cell_5_9 8)))
 (let (($x615 (= cell_5_9 7)))
 (let (($x712 (= cell_5_9 6)))
 (let (($x206 (= cell_5_9 5)))
 (let (($x7068 (= cell_5_9 4)))
 (let (($x2978 (= cell_5_9 3)))
 (let (($x9284 (= cell_5_9 2)))
 (let (($x1890 (= cell_5_9 1)))
 (or $x1890 $x9284 $x2978 $x7068 $x206 $x712 $x615 $x2582 $x3306)))))))))))
(assert
 (let (($x4061 (= cell_6_9 2)))
 (or (= cell_6_9 1) $x4061 (= cell_6_9 3) (= cell_6_9 4) (= cell_6_9 5) (= cell_6_9 6) (= cell_6_9 7) (= cell_6_9 8) (= cell_6_9 9))))
(assert
 (let (($x4176 (= cell_7_9 9)))
 (let (($x4950 (= cell_7_9 8)))
 (let (($x6212 (= cell_7_9 7)))
 (let (($x4254 (= cell_7_9 6)))
 (let (($x10106 (= cell_7_9 5)))
 (let (($x8271 (= cell_7_9 4)))
 (let (($x5521 (= cell_7_9 3)))
 (let (($x7599 (= cell_7_9 2)))
 (let (($x43 (= cell_7_9 1)))
 (or $x43 $x7599 $x5521 $x8271 $x10106 $x4254 $x6212 $x4950 $x4176)))))))))))
(assert
 (let (($x8832 (= cell_8_9 1)))
 (or $x8832 (= cell_8_9 2) (= cell_8_9 3) (= cell_8_9 4) (= cell_8_9 5) (= cell_8_9 6) (= cell_8_9 7) (= cell_8_9 8) (= cell_8_9 9))))
(assert
 (let (($x7927 (= cell_9_9 2)))
 (let (($x8970 (= cell_9_9 1)))
 (or $x8970 $x7927 (= cell_9_9 3) (= cell_9_9 4) (= cell_9_9 5) (= cell_9_9 6) (= cell_9_9 7) (= cell_9_9 8) (= cell_9_9 9)))))
(assert
 (and (distinct cell_1_1 cell_1_2 cell_1_3 cell_1_4 cell_1_5 cell_1_6 cell_1_7 cell_1_8 cell_1_9) true))
(assert
 (and (distinct cell_2_1 cell_2_2 cell_2_3 cell_2_4 cell_2_5 cell_2_6 cell_2_7 cell_2_8 cell_2_9) true))
(assert
 (and (distinct cell_3_1 cell_3_2 cell_3_3 cell_3_4 cell_3_5 cell_3_6 cell_3_7 cell_3_8 cell_3_9) true))
(assert
 (and (distinct cell_4_1 cell_4_2 cell_4_3 cell_4_4 cell_4_5 cell_4_6 cell_4_7 cell_4_8 cell_4_9) true))
(assert
 (and (distinct cell_5_1 cell_5_2 cell_5_3 cell_5_4 cell_5_5 cell_5_6 cell_5_7 cell_5_8 cell_5_9) true))
(assert
 (and (distinct cell_6_1 cell_6_2 cell_6_3 cell_6_4 cell_6_5 cell_6_6 cell_6_7 cell_6_8 cell_6_9) true))
(assert
 (and (distinct cell_7_1 cell_7_2 cell_7_3 cell_7_4 cell_7_5 cell_7_6 cell_7_7 cell_7_8 cell_7_9) true))
(assert
 (and (distinct cell_8_1 cell_8_2 cell_8_3 cell_8_4 cell_8_5 cell_8_6 cell_8_7 cell_8_8 cell_8_9) true))
(assert
 (and (distinct cell_9_1 cell_9_2 cell_9_3 cell_9_4 cell_9_5 cell_9_6 cell_9_7 cell_9_8 cell_9_9) true))
(assert
 (and (distinct cell_1_1 cell_2_1 cell_3_1 cell_4_1 cell_5_1 cell_6_1 cell_7_1 cell_8_1 cell_9_1) true))
(assert
 (and (distinct cell_1_2 cell_2_2 cell_3_2 cell_4_2 cell_5_2 cell_6_2 cell_7_2 cell_8_2 cell_9_2) true))
(assert
 (and (distinct cell_1_3 cell_2_3 cell_3_3 cell_4_3 cell_5_3 cell_6_3 cell_7_3 cell_8_3 cell_9_3) true))
(assert
 (and (distinct cell_1_4 cell_2_4 cell_3_4 cell_4_4 cell_5_4 cell_6_4 cell_7_4 cell_8_4 cell_9_4) true))
(assert
 (and (distinct cell_1_5 cell_2_5 cell_3_5 cell_4_5 cell_5_5 cell_6_5 cell_7_5 cell_8_5 cell_9_5) true))
(assert
 (and (distinct cell_1_6 cell_2_6 cell_3_6 cell_4_6 cell_5_6 cell_6_6 cell_7_6 cell_8_6 cell_9_6) true))
(assert
 (and (distinct cell_1_7 cell_2_7 cell_3_7 cell_4_7 cell_5_7 cell_6_7 cell_7_7 cell_8_7 cell_9_7) true))
(assert
 (and (distinct cell_1_8 cell_2_8 cell_3_8 cell_4_8 cell_5_8 cell_6_8 cell_7_8 cell_8_8 cell_9_8) true))
(assert
 (and (distinct cell_1_9 cell_2_9 cell_3_9 cell_4_9 cell_5_9 cell_6_9 cell_7_9 cell_8_9 cell_9_9) true))
(assert
 (and (distinct cell_1_1 cell_1_2 cell_1_3 cell_2_1 cell_2_2 cell_2_3 cell_3_1 cell_3_2 cell_3_3) true))
(assert
 (and (distinct cell_1_4 cell_1_5 cell_1_6 cell_2_4 cell_2_5 cell_2_6 cell_3_4 cell_3_5 cell_3_6) true))
(assert
 (and (distinct cell_1_7 cell_1_8 cell_1_9 cell_2_7 cell_2_8 cell_2_9 cell_3_7 cell_3_8 cell_3_9) true))
(assert
 (and (distinct cell_4_1 cell_4_2 cell_4_3 cell_5_1 cell_5_2 cell_5_3 cell_6_1 cell_6_2 cell_6_3) true))
(assert
 (and (distinct cell_4_4 cell_4_5 cell_4_6 cell_5_4 cell_5_5 cell_5_6 cell_6_4 cell_6_5 cell_6_6) true))
(assert
 (and (distinct cell_4_7 cell_4_8 cell_4_9 cell_5_7 cell_5_8 cell_5_9 cell_6_7 cell_6_8 cell_6_9) true))
(assert
 (and (distinct cell_7_1 cell_7_2 cell_7_3 cell_8_1 cell_8_2 cell_8_3 cell_9_1 cell_9_2 cell_9_3) true))
(assert
 (and (distinct cell_7_4 cell_7_5 cell_7_6 cell_8_4 cell_8_5 cell_8_6 cell_9_4 cell_9_5 cell_9_6) true))
(assert
 (and (distinct cell_7_7 cell_7_8 cell_7_9 cell_8_7 cell_8_8 cell_8_9 cell_9_7 cell_9_8 cell_9_9) true))
(assert
 (let (($x4459 (and (distinct cell_5_9 cell_6_8 cell_7_7 cell_8_6) true)))
 (let (($x2105 (and (distinct cell_2_9 cell_3_8 cell_4_7 cell_5_6 cell_6_5 cell_7_4 cell_8_3 cell_9_2) true)))
 (let (($x9411 (and (distinct cell_1_8 cell_2_7 cell_3_6 cell_4_5 cell_5_4 cell_6_3 cell_7_2 cell_8_1) true)))
 (let (($x10208 (and (distinct cell_1_5 cell_2_4 cell_3_3 cell_4_2) true)))
 (let (($x343 (and (distinct cell_5_1 cell_6_2 cell_7_3 cell_8_4) true)))
 (let (($x9810 (and (distinct cell_2_1 cell_3_2 cell_4_3 cell_5_4 cell_6_5 cell_7_6 cell_8_7 cell_9_8) true)))
 (let (($x7588 (and (distinct cell_1_2 cell_2_3 cell_3_4 cell_4_5 cell_5_6 cell_6_7 cell_7_8 cell_8_9) true)))
 (let (($x7315 (and (distinct cell_1_5 cell_2_6 cell_3_7 cell_4_8) true)))
 (and $x7315 $x7588 $x9810 $x343 $x10208 $x9411 $x2105 $x4459))))))))))
(assert
 (and (distinct cell_2_8 3) true))
(check-sat)
